proyfinal/src/viki/013/experimentInOfficeAgust.take6.output/e744441c-7a17-4965-abec-298fc475cf94.als.out
Reading from standard input... Use '--help' for help.
============================[ Problem Statistics ]=============================
|                                                                             |
|  Number of variables:         87638                                         |
|  Number of clauses:          161767                                         |
|  Parse time:                   0.03 s                                       |
|                                                                             |
============================[ Search Statistics ]==============================
| Conflicts |          ORIGINAL         |          LEARNT          | Progress |
|           |    Vars  Clauses Literals |    Limit  Clauses Lit/Cl |          |
===============================================================================
|       100 |   61858   103466   258066 |    37937      100      8 | 29.416 % |
|       250 |   61858   103466   258066 |    41731      250     24 | 29.416 % |
|       475 |   61748   103030   257022 |    45904      452     26 | 29.542 % |
|       812 |   61748   103030   257022 |    50494      789     46 | 29.542 % |
|      1318 |   61748   103030   257022 |    55544     1295     52 | 29.542 % |
|      2077 |   61654   102838   256556 |    61098     2048     62 | 29.649 % |
|      3216 |   61654   102658   256114 |    67208     3184     67 | 29.649 % |
|      4924 |   61650   102642   256070 |    73929     4780     78 | 29.654 % |
|      7486 |   61610   102480   255683 |    81322     7338     83 | 29.699 % |
|     11330 |   61235   101022   251966 |    89454     9202     87 | 30.127 % |
===============================================================================
restarts              : 61
conflicts             : 13912          (7692 /sec)
decisions             : 44557          (0.00 % random) (24636 /sec)
propagations          : 17901981       (9898308 /sec)
conflict literals     : 1083592        (48.74 % deleted)
Memory used           : 44.38 MB
CPU time              : 1.80859 s

UNSATISFIABLE
